param n := 249;
param c := 10000
param : V : p w :=
   0	   9	 466
   1	  28	 261
   2	  71	 273
   3	  88	 497
   4	  35	 250
   5	  46	 253
   6	  38	 382
   7	  45	 308
   8	  14	 310
   9	  60	 424
  10	  78	 273
  11	  69	 303
  12	  88	 385
  13	   2	 283
  14	  80	 332
  15	  46	 425
  16	  16	 254
  17	  46	 321
  18	  49	 464
  19	  83	 253
  20	  22	 283
  21	  55	 443
  22	  16	 258
  23	  36	 299
  24	  32	 401
  25	  26	 276
  26	  41	 323
  27	   5	 488
  28	  42	 255
  29	  35	 257
  30	  49	 431
  31	  62	 250
  32	  97	 319
  33	  77	 460
  34	   9	 263
  35	  12	 277
  36	  82	 381
  37	  77	 302
  38	  78	 317
  39	  29	 397
  40	  64	 260
  41	  50	 343
  42	  13	 380
  43	  21	 289
  44	  17	 331
  45	  52	 385
  46	  84	 250
  47	  48	 365
  48	  55	 441
  49	  69	 263
  50	   6	 296
  51	  37	 492
  52	  63	 253
  53	  65	 255
  54	  53	 431
  55	  64	 260
  56	  95	 309
  57	  17	 487
  58	  71	 255
  59	   8	 258
  60	  39	 407
  61	  62	 259
  62	   1	 334
  63	  56	 480
  64	 100	 255
  65	  99	 265
  66	  55	 428
  67	  46	 279
  68	  42	 293
  69	  36	 387
  70	  83	 281
  71	  86	 332
  72	   9	 444
  73	   9	 251
  74	  47	 305
  75	  16	 489
  76	  13	 254
  77	  90	 257
  78	  65	 372
  79	  74	 251
  80	  52	 377
  81	  96	 452
  82	  56	 257
  83	  45	 291
  84	  60	 428
  85	  93	 271
  86	  25	 301
  87	  35	 422
  88	  64	 253
  89	  34	 325
  90	  57	 358
  91	  20	 260
  92	  49	 382
  93	  84	 497
  94	   7	 250
  95	  44	 253
  96	   5	 382
  97	  13	 306
  98	  80	 312
  99	  15	 359
 100	  77	 269
 101	   9	 372
 102	  73	 409
 103	  62	 293
 104	  58	 298
 105	  77	 491
 106	  25	 252
 107	  96	 257
 108	  85	 434
 109	  63	 271
 110	  32	 295
 111	  86	 369
 112	  50	 252
 113	  69	 379
 114	  48	 383
 115	  35	 288
 116	  90	 329
 117	   6	 393
 118	  78	 263
 119	   5	 344
 120	  36	 438
 121	  12	 259
 122	  71	 303
 123	  24	 451
 124	  63	 267
 125	  32	 282
 126	  91	 494
 127	  99	 252
 128	  92	 254
 129	  27	 391
 130	  42	 288
 131	  90	 321
 132	   2	 376
 133	  32	 264
 134	  33	 360
 135	  98	 499
 136	  97	 250
 137	  90	 251
 138	  62	 381
 139	  87	 255
 140	  77	 364
 141	  26	 353
 142	  16	 311
 143	  39	 336
 144	  57	 440
 145	  72	 269
 146	  54	 291
 147	  76	 457
 148	  17	 267
 149	  75	 276
 150	  62	 452
 151	  34	 270
 152	  33	 278
 153	  86	 404
 154	  56	 262
 155	  84	 334
 156	   3	 398
 157	  45	 293
 158	  68	 309
 159	  84	 360
 160	  68	 279
 161	   3	 361
 162	  68	 425
 163	  34	 284
 164	  70	 291
 165	  27	 491
 166	  22	 251
 167	  44	 258
 168	  89	 451
 169	  31	 272
 170	   4	 277
 171	  39	 446
 172	  29	 276
 173	  75	 278
 174	  13	 497
 175	  88	 250
 176	   2	 253
 177	  48	 437
 178	  20	 254
 179	  65	 309
 180	  97	 469
 181	  14	 254
 182	  21	 277
 183	  23	 437
 184	  94	 279
 185	  62	 284
 186	  36	 354
 187	  59	 311
 188	  95	 335
 189	  78	 425
 190	  88	 250
 191	  21	 325
 192	  10	 461
 193	   5	 258
 194	  68	 281
 195	  57	 416
 196	  99	 270
 197	  71	 314
 198	  71	 459
 199	  33	 258
 200	  99	 283
 201	  25	 400
 202	  96	 271
 203	  27	 329
 204	  14	 468
 205	  98	 250
 206	  51	 282
 207	  90	 370
 208	  98	 269
 209	  33	 361
 210	  52	 422
 211	   1	 256
 212	  62	 322
 213	  79	 407
 214	  15	 260
 215	  39	 333
 216	  35	 382
 217	  92	 250
 218	  74	 368
 219	  95	 449
 220	  89	 254
 221	  76	 297
 222	  59	 426
 223	  41	 258
 224	  68	 316
 225	  98	 464
 226	  66	 267
 227	  78	 269
 228	  52	 415
 229	  14	 254
 230	  95	 331
 231	  44	 392
 232	  56	 280
 233	  17	 328
 234	  36	 415
 235	  17	 284
 236	  42	 301
 237	  25	 432
 238	  57	 279
 239	   7	 289
 240	  43	 410
 241	  55	 267
 242	   6	 323
 243	  58	 385
 244	  70	 252
 245	  96	 363
 246	  83	 368
 247	  74	 292
 248	  57	 340
;

set E :=
   0	   8
   0	  21
   0	  48
   0	  52
   0	  57
   0	  66
   0	  75
   0	  81
   0	  89
   0	  91
   0	 100
   0	 101
   0	 107
   0	 113
   0	 116
   0	 132
   0	 136
   0	 141
   0	 148
   0	 160
   0	 162
   0	 165
   0	 170
   0	 191
   0	 201
   0	 212
   0	 222
   0	 229
   0	 232
   0	 244
   1	   7
   1	   9
   1	  26
   1	  33
   1	  35
   1	  86
   1	  90
   1	  92
   1	 111
   1	 114
   1	 124
   1	 158
   1	 163
   1	 166
   1	 168
   1	 175
   1	 176
   1	 177
   1	 195
   1	 196
   1	 211
   1	 218
   1	 224
   1	 232
   2	   6
   2	  27
   2	  29
   2	  49
   2	  51
   2	  59
   2	  67
   2	  71
   2	  72
   2	  95
   2	 113
   2	 117
   2	 122
   2	 138
   2	 176
   2	 197
   2	 212
   2	 213
   2	 221
   2	 222
   2	 236
   2	 239
   2	 240
   3	  38
   3	  44
   3	  46
   3	 108
   3	 109
   3	 117
   3	 120
   3	 122
   3	 136
   3	 156
   3	 172
   3	 176
   3	 185
   3	 223
   3	 238
   4	  21
   4	  34
   4	  39
   4	  44
   4	  66
   4	  81
   4	 114
   4	 121
   4	 137
   4	 161
   4	 163
   4	 173
   4	 177
   4	 180
   4	 193
   4	 197
   4	 201
   4	 212
   4	 217
   4	 221
   4	 241
   5	   8
   5	  14
   5	  30
   5	  42
   5	  50
   5	  68
   5	  70
   5	  72
   5	  75
   5	  84
   5	  91
   5	  94
   5	 121
   5	 132
   5	 138
   5	 156
   5	 164
   5	 171
   5	 175
   5	 178
   5	 180
   5	 185
   5	 187
   5	 196
   5	 213
   5	 215
   5	 238
   5	 241
   6	  16
   6	  26
   6	  30
   6	  41
   6	  52
   6	  54
   6	  62
   6	  70
   6	  79
   6	  90
   6	 100
   6	 115
   6	 122
   6	 128
   6	 129
   6	 139
   6	 146
   6	 148
   6	 151
   6	 162
   6	 185
   6	 199
   6	 202
   6	 220
   6	 221
   6	 228
   6	 233
   6	 245
   7	   9
   7	  15
   7	  20
   7	  33
   7	  45
   7	  52
   7	  59
   7	  65
   7	  73
   7	  76
   7	  83
   7	  86
   7	  91
   7	 100
   7	 102
   7	 119
   7	 122
   7	 123
   7	 154
   7	 185
   7	 189
   7	 190
   7	 195
   7	 196
   7	 198
   7	 214
   7	 224
   7	 232
   7	 239
   7	 244
   8	   9
   8	  73
   8	  79
   8	  82
   8	  85
   8	  87
   8	  95
   8	 102
   8	 129
   8	 131
   8	 141
   8	 145
   8	 146
   8	 170
   8	 180
   8	 182
   8	 202
   8	 212
   8	 213
   8	 214
   8	 221
   8	 233
   8	 247
   9	  15
   9	  23
   9	  25
   9	  29
   9	  30
   9	  36
   9	  47
   9	  57
   9	  63
   9	  74
   9	  77
   9	  82
   9	  83
   9	  89
   9	  93
   9	  98
   9	 149
   9	 160
   9	 164
   9	 179
   9	 186
   9	 215
   9	 221
   9	 241
   9	 244
   9	 245
   9	 247
  10	  12
  10	  27
  10	  40
  10	  54
  10	  66
  10	  73
  10	  76
  10	  95
  10	 112
  10	 118
  10	 125
  10	 134
  10	 139
  10	 140
  10	 154
  10	 156
  10	 161
  10	 177
  10	 182
  10	 196
  10	 197
  10	 229
  10	 232
  11	  16
  11	  19
  11	  24
  11	  26
  11	  41
  11	  63
  11	  78
  11	  85
  11	  95
  11	 101
  11	 110
  11	 121
  11	 125
  11	 130
  11	 135
  11	 138
  11	 144
  11	 159
  11	 173
  11	 185
  11	 225
  11	 237
  11	 242
  12	  25
  12	  29
  12	  31
  12	  41
  12	  50
  12	  54
  12	  56
  12	  59
  12	  66
  12	  70
  12	  77
  12	  83
  12	 110
  12	 121
  12	 123
  12	 137
  12	 141
  12	 143
  12	 150
  12	 158
  12	 170
  12	 171
  12	 177
  12	 184
  12	 185
  12	 187
  12	 190
  12	 211
  12	 212
  12	 215
  12	 232
  12	 241
  13	  20
  13	  34
  13	  37
  13	  39
  13	  44
  13	  47
  13	  55
  13	  79
  13	  98
  13	 132
  13	 148
  13	 154
  13	 155
  13	 163
  13	 164
  13	 167
  13	 207
  13	 212
  13	 218
  13	 221
  14	  26
  14	  34
  14	  36
  14	  46
  14	  51
  14	  54
  14	  64
  14	  70
  14	  81
  14	  87
  14	 109
  14	 118
  14	 126
  14	 127
  14	 129
  14	 135
  14	 141
  14	 164
  14	 169
  14	 175
  14	 200
  14	 215
  14	 216
  14	 231
  14	 238
  14	 245
  15	  20
  15	  25
  15	  54
  15	  63
  15	  65
  15	  74
  15	  78
  15	 110
  15	 116
  15	 131
  15	 134
  15	 135
  15	 147
  15	 160
  15	 165
  15	 189
  15	 197
  15	 199
  15	 202
  15	 210
  15	 220
  15	 245
  16	  22
  16	  50
  16	  62
  16	  84
  16	  87
  16	  90
  16	 100
  16	 116
  16	 126
  16	 128
  16	 133
  16	 147
  16	 148
  16	 149
  16	 159
  16	 169
  16	 174
  16	 175
  16	 182
  16	 193
  16	 202
  16	 207
  16	 236
  16	 238
  17	  24
  17	  29
  17	  37
  17	  50
  17	  52
  17	  61
  17	  68
  17	  76
  17	  77
  17	  82
  17	  84
  17	  87
  17	  92
  17	  94
  17	  96
  17	 120
  17	 127
  17	 137
  17	 143
  17	 149
  17	 155
  17	 157
  17	 165
  17	 169
  17	 182
  17	 195
  17	 197
  17	 201
  17	 218
  17	 235
  17	 238
  18	  32
  18	  48
  18	  55
  18	  56
  18	  72
  18	  82
  18	  85
  18	  87
  18	  98
  18	 112
  18	 115
  18	 145
  18	 178
  18	 179
  18	 183
  18	 185
  18	 191
  18	 194
  18	 202
  18	 215
  18	 220
  18	 240
  18	 248
  19	  21
  19	  23
  19	  24
  19	  78
  19	  82
  19	  85
  19	  95
  19	 101
  19	 104
  19	 136
  19	 137
  19	 164
  19	 165
  19	 170
  19	 187
  19	 203
  19	 242
  20	  24
  20	  27
  20	  60
  20	  63
  20	  68
  20	  69
  20	  75
  20	  92
  20	 114
  20	 129
  20	 130
  20	 147
  20	 175
  20	 241
  21	  24
  21	  29
  21	  31
  21	  68
  21	  69
  21	  90
  21	 104
  21	 108
  21	 148
  21	 152
  21	 168
  21	 172
  21	 176
  21	 182
  21	 183
  21	 186
  21	 189
  21	 191
  21	 217
  22	  33
  22	  48
  22	  49
  22	  52
  22	  56
  22	  64
  22	  66
  22	  79
  22	  88
  22	  96
  22	 103
  22	 113
  22	 117
  22	 118
  22	 123
  22	 133
  22	 138
  22	 139
  22	 149
  22	 163
  22	 168
  22	 205
  22	 211
  22	 214
  22	 223
  22	 233
  22	 240
  22	 245
  22	 247
  23	  37
  23	  57
  23	  72
  23	  73
  23	  78
  23	  81
  23	 112
  23	 117
  23	 131
  23	 132
  23	 184
  23	 189
  23	 190
  23	 193
  23	 202
  23	 204
  23	 206
  23	 218
  23	 220
  23	 240
  24	  42
  24	  55
  24	  67
  24	  80
  24	  94
  24	  95
  24	 101
  24	 125
  24	 131
  24	 134
  24	 140
  24	 147
  24	 148
  24	 174
  24	 176
  24	 190
  24	 193
  24	 202
  24	 228
  24	 235
  24	 243
  25	  37
  25	  40
  25	  69
  25	  80
  25	  85
  25	  90
  25	  94
  25	 119
  25	 121
  25	 124
  25	 133
  25	 151
  25	 160
  25	 201
  25	 205
  25	 214
  25	 248
  26	  44
  26	  53
  26	  58
  26	  63
  26	  66
  26	  70
  26	  71
  26	  80
  26	  84
  26	 133
  26	 142
  26	 144
  26	 152
  26	 161
  26	 178
  26	 195
  26	 196
  26	 206
  26	 211
  26	 213
  26	 221
  26	 223
  26	 224
  26	 228
  26	 233
  26	 246
  26	 247
  27	  30
  27	  38
  27	  49
  27	  62
  27	  71
  27	  80
  27	  94
  27	 120
  27	 129
  27	 131
  27	 146
  27	 150
  27	 172
  27	 208
  27	 211
  27	 222
  27	 230
  27	 235
  27	 239
  28	  31
  28	  50
  28	  67
  28	  75
  28	  81
  28	  82
  28	  87
  28	  90
  28	 114
  28	 123
  28	 144
  28	 169
  28	 172
  28	 177
  28	 180
  28	 195
  28	 196
  28	 210
  28	 215
  28	 224
  28	 234
  28	 237
  28	 240
  29	  33
  29	  42
  29	  43
  29	  56
  29	  97
  29	 101
  29	 107
  29	 160
  29	 164
  29	 182
  29	 186
  29	 191
  29	 202
  29	 215
  29	 219
  29	 227
  29	 229
  29	 232
  29	 233
  29	 239
  29	 247
  30	  35
  30	  52
  30	  53
  30	  57
  30	  82
  30	  93
  30	  97
  30	 121
  30	 131
  30	 141
  30	 147
  30	 157
  30	 164
  30	 172
  30	 180
  30	 203
  30	 207
  30	 209
  30	 212
  30	 219
  30	 231
  30	 234
  30	 242
  30	 244
  31	  38
  31	  51
  31	  64
  31	  79
  31	 105
  31	 111
  31	 128
  31	 136
  31	 147
  31	 152
  31	 173
  31	 174
  31	 205
  31	 210
  31	 218
  31	 228
  31	 231
  31	 237
  32	  46
  32	  54
  32	  67
  32	  81
  32	  86
  32	  87
  32	 113
  32	 120
  32	 128
  32	 139
  32	 144
  32	 157
  32	 181
  32	 184
  32	 193
  32	 194
  32	 218
  32	 227
  32	 229
  33	  43
  33	  48
  33	  52
  33	  54
  33	  63
  33	  65
  33	  73
  33	  76
  33	  82
  33	 108
  33	 152
  33	 167
  33	 169
  33	 175
  33	 176
  33	 178
  33	 197
  33	 204
  33	 205
  33	 230
  33	 237
  33	 238
  33	 246
  34	  58
  34	  64
  34	  68
  34	  87
  34	 122
  34	 127
  34	 152
  34	 156
  34	 163
  34	 164
  34	 167
  34	 176
  34	 178
  34	 188
  34	 190
  34	 195
  34	 218
  34	 228
  34	 241
  34	 243
  35	  42
  35	  53
  35	  60
  35	  62
  35	  64
  35	  77
  35	  82
  35	  84
  35	  85
  35	  96
  35	 109
  35	 129
  35	 130
  35	 150
  35	 155
  35	 167
  35	 169
  35	 172
  35	 179
  35	 181
  35	 184
  35	 212
  35	 225
  35	 226
  35	 238
  35	 239
  35	 240
  35	 241
  36	  38
  36	  51
  36	  80
  36	  91
  36	  98
  36	 123
  36	 133
  36	 138
  36	 141
  36	 169
  36	 172
  36	 178
  36	 188
  36	 190
  36	 197
  36	 199
  36	 206
  36	 208
  36	 214
  36	 215
  36	 217
  36	 222
  36	 225
  36	 230
  36	 232
  36	 239
  36	 243
  36	 244
  37	  40
  37	  44
  37	  63
  37	  72
  37	  85
  37	  94
  37	  96
  37	 119
  37	 120
  37	 130
  37	 145
  37	 148
  37	 149
  37	 159
  37	 179
  37	 181
  37	 188
  37	 199
  37	 204
  37	 228
  37	 232
  37	 243
  37	 246
  38	  40
  38	  49
  38	  53
  38	  60
  38	  65
  38	  75
  38	  86
  38	 108
  38	 113
  38	 116
  38	 133
  38	 138
  38	 152
  38	 159
  38	 175
  38	 184
  38	 199
  38	 220
  38	 230
  39	  51
  39	  59
  39	  76
  39	  79
  39	  95
  39	 111
  39	 128
  39	 144
  39	 145
  39	 151
  39	 155
  39	 156
  39	 160
  39	 163
  39	 167
  39	 176
  39	 187
  39	 196
  39	 206
  39	 214
  39	 215
  39	 238
  39	 241
  40	  73
  40	 101
  40	 103
  40	 109
  40	 115
  40	 116
  40	 164
  40	 168
  40	 173
  40	 178
  40	 180
  40	 185
  40	 192
  40	 199
  40	 200
  40	 226
  40	 233
  41	  44
  41	  56
  41	  65
  41	  71
  41	  79
  41	  82
  41	  90
  41	  92
  41	 102
  41	 125
  41	 130
  41	 136
  41	 144
  41	 148
  41	 149
  41	 152
  41	 153
  41	 166
  41	 169
  41	 174
  41	 176
  41	 202
  41	 210
  41	 219
  41	 235
  42	  44
  42	  46
  42	  55
  42	  60
  42	  64
  42	  67
  42	  71
  42	  76
  42	  78
  42	  92
  42	  99
  42	 107
  42	 109
  42	 115
  42	 118
  42	 125
  42	 131
  42	 137
  42	 138
  42	 139
  42	 157
  42	 159
  42	 183
  42	 184
  42	 212
  42	 225
  42	 227
  42	 229
  42	 235
  42	 246
  43	  57
  43	  62
  43	  90
  43	 112
  43	 113
  43	 128
  43	 147
  43	 150
  43	 151
  43	 182
  43	 198
  43	 202
  43	 203
  43	 208
  43	 225
  43	 228
  44	  49
  44	  65
  44	  77
  44	  85
  44	  88
  44	  89
  44	  94
  44	 108
  44	 117
  44	 133
  44	 134
  44	 148
  44	 156
  44	 177
  44	 180
  44	 181
  44	 187
  44	 192
  44	 206
  44	 207
  44	 209
  44	 223
  45	  48
  45	  51
  45	  64
  45	  72
  45	  80
  45	  85
  45	  94
  45	  97
  45	 101
  45	 120
  45	 132
  45	 134
  45	 136
  45	 140
  45	 143
  45	 152
  45	 159
  45	 183
  45	 199
  45	 216
  45	 241
  46	  53
  46	  56
  46	  77
  46	  98
  46	 110
  46	 115
  46	 116
  46	 133
  46	 145
  46	 155
  46	 166
  46	 167
  46	 176
  46	 179
  46	 182
  46	 183
  46	 186
  46	 198
  46	 205
  46	 210
  46	 242
  46	 244
  47	  60
  47	  63
  47	  67
  47	  83
  47	  91
  47	  99
  47	 107
  47	 128
  47	 140
  47	 148
  47	 149
  47	 154
  47	 157
  47	 162
  47	 178
  47	 189
  47	 191
  47	 200
  47	 202
  47	 213
  47	 218
  47	 234
  47	 238
  47	 246
  48	  49
  48	  83
  48	  90
  48	  93
  48	 101
  48	 102
  48	 114
  48	 121
  48	 149
  48	 153
  48	 154
  48	 159
  48	 160
  48	 167
  48	 173
  48	 175
  48	 184
  48	 192
  48	 193
  48	 212
  48	 216
  49	  67
  49	  92
  49	 101
  49	 109
  49	 112
  49	 113
  49	 120
  49	 131
  49	 134
  49	 135
  49	 143
  49	 166
  49	 170
  49	 177
  49	 188
  49	 189
  49	 202
  49	 203
  49	 227
  49	 228
  49	 239
  49	 242
  50	  52
  50	  59
  50	  60
  50	  61
  50	  70
  50	  79
  50	  82
  50	 100
  50	 113
  50	 150
  50	 154
  50	 174
  50	 175
  50	 182
  50	 185
  50	 202
  50	 214
  50	 240
  50	 244
  51	  59
  51	  69
  51	  74
  51	  75
  51	  77
  51	  82
  51	  86
  51	  92
  51	  95
  51	 110
  51	 120
  51	 126
  51	 127
  51	 152
  51	 174
  51	 178
  51	 199
  51	 208
  51	 211
  51	 212
  51	 215
  51	 224
  51	 229
  51	 232
  51	 245
  52	  53
  52	  64
  52	  68
  52	  73
  52	 104
  52	 108
  52	 114
  52	 115
  52	 119
  52	 138
  52	 142
  52	 143
  52	 144
  52	 145
  52	 156
  52	 179
  52	 215
  52	 248
  53	  55
  53	  58
  53	  74
  53	  78
  53	  90
  53	  98
  53	 108
  53	 111
  53	 115
  53	 121
  53	 145
  53	 161
  53	 170
  53	 177
  53	 188
  53	 193
  53	 194
  53	 203
  53	 207
  53	 212
  53	 215
  53	 223
  53	 230
  53	 237
  53	 239
  53	 244
  54	  55
  54	  66
  54	  76
  54	 106
  54	 109
  54	 113
  54	 114
  54	 136
  54	 140
  54	 153
  54	 163
  54	 172
  54	 177
  54	 196
  54	 200
  54	 208
  54	 209
  54	 218
  54	 228
  55	  56
  55	  78
  55	  80
  55	  86
  55	 118
  55	 123
  55	 124
  55	 126
  55	 129
  55	 132
  55	 133
  55	 137
  55	 141
  55	 156
  55	 162
  55	 187
  55	 196
  55	 203
  55	 214
  55	 217
  55	 230
  55	 241
  56	  72
  56	  85
  56	  86
  56	  89
  56	  99
  56	 100
  56	 102
  56	 103
  56	 135
  56	 143
  56	 151
  56	 158
  56	 159
  56	 160
  56	 198
  56	 199
  56	 203
  56	 220
  56	 225
  56	 233
  56	 240
  56	 247
  56	 248
  57	  62
  57	  65
  57	  73
  57	  76
  57	 117
  57	 128
  57	 147
  57	 178
  57	 184
  57	 199
  57	 208
  57	 234
  57	 235
  57	 241
  58	  61
  58	  62
  58	  66
  58	  69
  58	  70
  58	  86
  58	  87
  58	 107
  58	 116
  58	 124
  58	 143
  58	 151
  58	 152
  58	 160
  58	 168
  58	 173
  58	 176
  58	 179
  58	 184
  58	 200
  58	 215
  58	 223
  58	 237
  59	  71
  59	  79
  59	  80
  59	  81
  59	 100
  59	 111
  59	 125
  59	 132
  59	 195
  59	 198
  59	 199
  59	 205
  59	 218
  59	 224
  59	 245
  60	  87
  60	  97
  60	 116
  60	 122
  60	 129
  60	 148
  60	 160
  60	 162
  60	 202
  60	 211
  60	 218
  60	 224
  61	  77
  61	  78
  61	  81
  61	  85
  61	  99
  61	 107
  61	 108
  61	 119
  61	 124
  61	 155
  61	 156
  61	 170
  61	 172
  61	 185
  61	 196
  61	 210
  61	 227
  61	 228
  61	 230
  61	 244
  62	  76
  62	  79
  62	  98
  62	 110
  62	 119
  62	 122
  62	 135
  62	 165
  62	 168
  62	 169
  62	 203
  62	 222
  62	 236
  63	  65
  63	  73
  63	  76
  63	  79
  63	 101
  63	 136
  63	 166
  63	 167
  63	 168
  63	 172
  63	 180
  63	 186
  63	 188
  63	 191
  63	 198
  63	 206
  63	 220
  63	 239
  63	 241
  64	  68
  64	  71
  64	  72
  64	  77
  64	  94
  64	  96
  64	  99
  64	 102
  64	 108
  64	 112
  64	 134
  64	 143
  64	 146
  64	 149
  64	 166
  64	 182
  64	 189
  64	 197
  64	 203
  64	 213
  64	 231
  64	 239
  64	 241
  64	 243
  65	  78
  65	  93
  65	  99
  65	 132
  65	 134
  65	 135
  65	 139
  65	 143
  65	 154
  65	 155
  65	 156
  65	 166
  65	 170
  65	 173
  65	 185
  65	 189
  65	 199
  65	 206
  65	 212
  65	 214
  65	 230
  65	 233
  66	 110
  66	 122
  66	 129
  66	 130
  66	 132
  66	 149
  66	 167
  66	 169
  66	 177
  66	 180
  66	 207
  66	 214
  66	 241
  66	 244
  66	 247
  67	  74
  67	  83
  67	  88
  67	  94
  67	  98
  67	 113
  67	 117
  67	 131
  67	 132
  67	 137
  67	 162
  67	 166
  67	 168
  67	 173
  67	 175
  67	 186
  67	 191
  67	 204
  67	 208
  67	 226
  67	 231
  67	 234
  67	 243
  68	  74
  68	  99
  68	 107
  68	 113
  68	 121
  68	 136
  68	 168
  68	 170
  68	 186
  68	 200
  68	 203
  68	 210
  68	 211
  68	 214
  68	 221
  68	 229
  68	 235
  68	 236
  68	 243
  69	  70
  69	  71
  69	 100
  69	 102
  69	 116
  69	 129
  69	 156
  69	 166
  69	 169
  69	 173
  69	 175
  69	 178
  69	 195
  69	 204
  69	 223
  69	 228
  69	 230
  69	 244
  69	 245
  70	  83
  70	  91
  70	  99
  70	 101
  70	 112
  70	 158
  70	 159
  70	 164
  70	 165
  70	 172
  70	 180
  70	 211
  70	 214
  70	 215
  70	 245
  71	  72
  71	  75
  71	  80
  71	 106
  71	 107
  71	 126
  71	 140
  71	 141
  71	 145
  71	 152
  71	 162
  71	 169
  71	 180
  71	 189
  71	 197
  71	 198
  71	 216
  71	 218
  71	 228
  71	 237
  71	 238
  71	 242
  72	  94
  72	  99
  72	 103
  72	 104
  72	 106
  72	 123
  72	 124
  72	 158
  72	 163
  72	 174
  72	 179
  72	 190
  72	 208
  72	 229
  72	 233
  72	 242
  73	  85
  73	  96
  73	 100
  73	 107
  73	 121
  73	 131
  73	 133
  73	 136
  73	 144
  73	 152
  73	 155
  73	 157
  73	 161
  73	 194
  73	 199
  73	 218
  73	 227
  73	 237
  73	 238
  73	 240
  74	 103
  74	 126
  74	 133
  74	 146
  74	 150
  74	 155
  74	 159
  74	 167
  74	 174
  74	 183
  74	 193
  74	 198
  74	 208
  74	 226
  74	 232
  75	  84
  75	  88
  75	  89
  75	  93
  75	 106
  75	 115
  75	 118
  75	 122
  75	 124
  75	 133
  75	 135
  75	 136
  75	 145
  75	 158
  75	 165
  75	 166
  75	 168
  75	 178
  75	 190
  75	 223
  75	 225
  75	 229
  76	  79
  76	  94
  76	  96
  76	  98
  76	 102
  76	 111
  76	 120
  76	 121
  76	 122
  76	 137
  76	 148
  76	 171
  76	 186
  76	 203
  76	 204
  76	 221
  77	  97
  77	 105
  77	 118
  77	 142
  77	 154
  77	 155
  77	 157
  77	 167
  77	 173
  77	 206
  77	 217
  77	 223
  78	  88
  78	 120
  78	 122
  78	 125
  78	 130
  78	 134
  78	 135
  78	 139
  78	 149
  78	 157
  78	 158
  78	 177
  78	 201
  78	 209
  78	 226
  78	 233
  79	  80
  79	  98
  79	 102
  79	 107
  79	 118
  79	 136
  79	 140
  79	 160
  79	 166
  79	 175
  79	 180
  79	 198
  79	 204
  79	 208
  79	 223
  79	 231
  79	 235
  79	 243
  79	 245
  80	 108
  80	 116
  80	 141
  80	 144
  80	 149
  80	 155
  80	 167
  80	 175
  80	 176
  80	 178
  80	 185
  80	 204
  80	 210
  80	 240
  81	  87
  81	  97
  81	 112
  81	 121
  81	 139
  81	 140
  81	 146
  81	 154
  81	 162
  81	 173
  81	 188
  81	 189
  81	 201
  81	 218
  81	 222
  81	 225
  82	  86
  82	 100
  82	 120
  82	 123
  82	 126
  82	 127
  82	 132
  82	 156
  82	 160
  82	 169
  82	 195
  82	 197
  82	 207
  82	 229
  83	  88
  83	  92
  83	 106
  83	 111
  83	 112
  83	 132
  83	 155
  83	 157
  83	 164
  83	 174
  83	 177
  83	 180
  83	 183
  83	 194
  83	 207
  83	 213
  83	 219
  83	 228
  83	 229
  83	 239
  84	  86
  84	  87
  84	 114
  84	 122
  84	 124
  84	 155
  84	 169
  84	 181
  84	 185
  84	 189
  84	 208
  84	 216
  84	 228
  84	 243
  85	 114
  85	 116
  85	 123
  85	 124
  85	 125
  85	 139
  85	 142
  85	 151
  85	 167
  85	 177
  85	 178
  85	 179
  85	 184
  85	 185
  85	 186
  85	 193
  85	 215
  85	 221
  85	 236
  85	 243
  86	 108
  86	 110
  86	 115
  86	 143
  86	 149
  86	 151
  86	 164
  86	 178
  86	 181
  86	 212
  86	 229
  86	 239
  87	  97
  87	  98
  87	 104
  87	 105
  87	 119
  87	 121
  87	 148
  87	 161
  87	 167
  87	 188
  87	 227
  87	 228
  87	 237
  87	 241
  88	  95
  88	 102
  88	 123
  88	 126
  88	 128
  88	 140
  88	 152
  88	 160
  88	 166
  88	 168
  88	 193
  88	 201
  88	 214
  88	 227
  88	 229
  88	 237
  89	 100
  89	 103
  89	 114
  89	 116
  89	 119
  89	 132
  89	 134
  89	 141
  89	 142
  89	 148
  89	 149
  89	 151
  89	 172
  89	 190
  89	 196
  89	 197
  89	 202
  89	 204
  89	 207
  89	 217
  89	 228
  89	 237
  89	 244
  90	  97
  90	 114
  90	 122
  90	 124
  90	 152
  90	 162
  90	 167
  90	 171
  90	 174
  90	 176
  90	 186
  90	 190
  90	 238
  90	 243
  90	 244
  91	 107
  91	 121
  91	 127
  91	 135
  91	 146
  91	 147
  91	 169
  91	 171
  91	 184
  91	 197
  91	 208
  91	 211
  91	 217
  91	 230
  91	 233
  92	  94
  92	 108
  92	 128
  92	 134
  92	 141
  92	 145
  92	 146
  92	 149
  92	 155
  92	 156
  92	 163
  92	 167
  92	 171
  92	 194
  92	 206
  92	 209
  92	 212
  92	 221
  92	 237
  92	 245
  93	 131
  93	 135
  93	 154
  93	 161
  93	 173
  93	 199
  93	 216
  93	 218
  93	 231
  93	 232
  93	 238
  93	 248
  94	  97
  94	  98
  94	 109
  94	 116
  94	 130
  94	 135
  94	 146
  94	 155
  94	 168
  94	 169
  94	 183
  94	 188
  94	 193
  94	 202
  94	 223
  94	 237
  95	 105
  95	 137
  95	 142
  95	 161
  95	 184
  95	 193
  95	 198
  95	 223
  95	 228
  95	 246
  96	  99
  96	 112
  96	 126
  96	 136
  96	 152
  96	 160
  96	 163
  96	 169
  96	 171
  96	 174
  96	 178
  96	 179
  96	 190
  96	 205
  96	 214
  96	 218
  96	 244
  97	 108
  97	 119
  97	 121
  97	 132
  97	 141
  97	 142
  97	 143
  97	 147
  97	 169
  97	 174
  97	 186
  97	 199
  97	 212
  97	 213
  97	 242
  97	 247
  98	 104
  98	 105
  98	 122
  98	 127
  98	 135
  98	 139
  98	 146
  98	 154
  98	 155
  98	 156
  98	 169
  98	 170
  98	 191
  98	 196
  98	 209
  98	 232
  99	 107
  99	 114
  99	 124
  99	 135
  99	 173
  99	 202
  99	 214
  99	 229
 100	 111
 100	 154
 100	 168
 100	 188
 100	 205
 100	 217
 100	 228
 100	 230
 100	 248
 101	 114
 101	 124
 101	 127
 101	 158
 101	 198
 101	 210
 101	 212
 101	 222
 101	 240
 101	 242
 102	 107
 102	 109
 102	 111
 102	 113
 102	 121
 102	 158
 102	 169
 102	 173
 102	 187
 102	 188
 102	 195
 102	 196
 102	 197
 102	 198
 102	 242
 103	 124
 103	 130
 103	 135
 103	 138
 103	 184
 103	 187
 103	 208
 103	 218
 104	 120
 104	 121
 104	 149
 104	 177
 104	 183
 104	 191
 104	 209
 104	 214
 104	 228
 104	 230
 104	 241
 104	 242
 105	 118
 105	 120
 105	 138
 105	 146
 105	 149
 105	 151
 105	 165
 105	 186
 105	 190
 105	 194
 105	 197
 105	 209
 105	 231
 105	 234
 106	 114
 106	 131
 106	 137
 106	 151
 106	 162
 106	 166
 106	 168
 106	 172
 106	 176
 106	 181
 106	 188
 106	 196
 106	 212
 106	 220
 106	 237
 106	 245
 106	 247
 107	 108
 107	 111
 107	 112
 107	 127
 107	 138
 107	 160
 107	 193
 107	 195
 107	 207
 107	 220
 107	 226
 107	 232
 108	 112
 108	 118
 108	 131
 108	 132
 108	 148
 108	 151
 108	 155
 108	 157
 108	 180
 108	 181
 108	 195
 108	 196
 108	 198
 108	 207
 108	 212
 108	 222
 108	 226
 108	 234
 108	 246
 108	 248
 109	 126
 109	 127
 109	 136
 109	 147
 109	 148
 109	 171
 109	 174
 109	 176
 109	 180
 109	 182
 109	 215
 109	 216
 109	 217
 109	 223
 109	 238
 110	 135
 110	 139
 110	 144
 110	 170
 110	 171
 110	 179
 110	 194
 110	 205
 110	 235
 110	 243
 110	 247
 111	 118
 111	 119
 111	 131
 111	 143
 111	 144
 111	 148
 111	 168
 111	 169
 111	 176
 111	 182
 111	 226
 111	 227
 111	 234
 111	 238
 112	 117
 112	 119
 112	 133
 112	 138
 112	 141
 112	 169
 112	 188
 112	 201
 112	 211
 112	 215
 112	 222
 113	 124
 113	 132
 113	 144
 113	 151
 113	 152
 113	 182
 113	 191
 113	 203
 113	 205
 113	 210
 113	 219
 113	 227
 113	 239
 113	 244
 114	 134
 114	 136
 114	 139
 114	 147
 114	 149
 114	 154
 114	 155
 114	 173
 114	 186
 114	 187
 114	 204
 114	 205
 114	 207
 114	 215
 114	 225
 114	 233
 114	 234
 115	 130
 115	 131
 115	 135
 115	 136
 115	 144
 115	 152
 115	 158
 115	 188
 115	 189
 115	 192
 115	 209
 115	 215
 115	 219
 115	 225
 115	 227
 115	 233
 116	 126
 116	 155
 116	 157
 116	 159
 116	 168
 116	 174
 116	 179
 116	 184
 116	 187
 116	 215
 116	 219
 116	 232
 116	 236
 117	 123
 117	 134
 117	 150
 117	 158
 117	 160
 117	 178
 117	 204
 117	 210
 117	 216
 117	 222
 117	 223
 117	 232
 117	 237
 117	 248
 118	 121
 118	 130
 118	 136
 118	 137
 118	 150
 118	 153
 118	 168
 118	 169
 118	 171
 118	 172
 118	 188
 118	 192
 118	 193
 118	 195
 118	 206
 118	 213
 118	 224
 118	 232
 118	 233
 119	 123
 119	 151
 119	 152
 119	 158
 119	 178
 119	 191
 119	 198
 119	 204
 119	 205
 119	 208
 119	 210
 119	 217
 119	 229
 119	 243
 120	 143
 120	 163
 120	 167
 120	 200
 120	 203
 120	 208
 120	 217
 120	 223
 120	 229
 120	 235
 120	 237
 121	 122
 121	 126
 121	 130
 121	 151
 121	 155
 121	 160
 121	 163
 121	 178
 121	 191
 121	 202
 121	 215
 121	 219
 121	 233
 121	 245
 121	 248
 122	 138
 122	 142
 122	 145
 122	 146
 122	 154
 122	 162
 122	 165
 122	 174
 122	 195
 122	 224
 122	 231
 122	 244
 123	 154
 123	 177
 123	 206
 123	 212
 123	 215
 123	 224
 124	 135
 124	 165
 124	 171
 124	 187
 124	 190
 124	 198
 124	 202
 124	 208
 124	 223
 124	 225
 124	 233
 125	 144
 125	 146
 125	 167
 125	 190
 125	 196
 125	 198
 125	 222
 125	 234
 125	 235
 125	 236
 126	 127
 126	 131
 126	 132
 126	 145
 126	 150
 126	 152
 126	 160
 126	 168
 126	 183
 126	 192
 126	 198
 126	 199
 126	 207
 126	 232
 126	 233
 127	 128
 127	 177
 127	 179
 127	 189
 127	 196
 127	 208
 128	 131
 128	 167
 128	 172
 128	 192
 128	 208
 128	 230
 128	 232
 129	 133
 129	 139
 129	 157
 129	 159
 129	 164
 129	 176
 129	 179
 129	 203
 130	 131
 130	 143
 130	 187
 130	 232
 130	 246
 131	 141
 131	 142
 131	 146
 131	 152
 131	 163
 131	 164
 131	 184
 131	 186
 131	 193
 131	 212
 131	 214
 131	 245
 132	 142
 132	 155
 132	 161
 132	 167
 132	 174
 132	 191
 132	 193
 132	 196
 132	 203
 132	 208
 132	 209
 132	 233
 132	 234
 132	 244
 133	 141
 133	 147
 133	 148
 133	 149
 133	 154
 133	 171
 133	 173
 133	 200
 133	 206
 133	 217
 133	 223
 133	 230
 133	 244
 134	 142
 134	 152
 134	 159
 134	 171
 134	 175
 134	 194
 134	 219
 134	 227
 134	 229
 134	 239
 135	 137
 135	 143
 135	 145
 135	 155
 135	 172
 135	 178
 135	 180
 135	 190
 135	 218
 135	 222
 135	 228
 135	 234
 135	 245
 135	 247
 136	 137
 136	 148
 136	 162
 136	 178
 136	 181
 136	 182
 136	 184
 136	 196
 136	 203
 136	 205
 136	 206
 136	 214
 136	 225
 136	 242
 137	 144
 137	 154
 137	 163
 137	 171
 137	 174
 137	 191
 137	 197
 137	 211
 137	 216
 137	 218
 137	 229
 137	 242
 137	 243
 137	 248
 138	 190
 138	 211
 138	 224
 138	 242
 139	 141
 139	 143
 139	 144
 139	 146
 139	 155
 139	 161
 139	 168
 139	 187
 139	 188
 139	 201
 139	 217
 139	 218
 139	 246
 139	 248
 140	 159
 140	 167
 140	 179
 140	 182
 140	 184
 140	 202
 140	 214
 140	 228
 140	 234
 140	 243
 140	 248
 141	 147
 141	 148
 141	 153
 141	 154
 141	 173
 141	 175
 141	 190
 141	 215
 141	 224
 141	 248
 142	 157
 142	 174
 142	 176
 142	 178
 142	 181
 142	 185
 142	 189
 142	 196
 142	 217
 142	 218
 143	 168
 143	 176
 143	 196
 143	 197
 143	 200
 143	 201
 143	 221
 143	 226
 143	 234
 144	 146
 144	 150
 144	 156
 144	 173
 144	 177
 144	 178
 144	 183
 144	 191
 144	 192
 144	 194
 144	 205
 144	 215
 144	 216
 144	 219
 144	 222
 144	 238
 144	 240
 145	 163
 145	 172
 145	 176
 145	 214
 145	 220
 145	 234
 145	 245
 146	 148
 146	 167
 146	 170
 146	 181
 146	 206
 146	 212
 146	 231
 147	 155
 147	 162
 147	 168
 147	 170
 147	 171
 147	 179
 147	 183
 147	 184
 147	 190
 147	 205
 147	 225
 147	 241
 147	 248
 148	 152
 148	 161
 148	 164
 148	 170
 148	 175
 148	 180
 148	 187
 148	 190
 148	 192
 148	 193
 148	 198
 148	 222
 148	 225
 148	 227
 149	 156
 149	 159
 149	 162
 149	 163
 149	 177
 149	 210
 149	 240
 149	 246
 150	 153
 150	 179
 150	 180
 150	 212
 150	 228
 150	 236
 150	 241
 151	 154
 151	 156
 151	 174
 151	 175
 151	 185
 151	 191
 151	 208
 151	 226
 151	 238
 152	 171
 152	 184
 152	 192
 152	 193
 152	 200
 152	 205
 152	 207
 152	 214
 152	 241
 152	 246
 153	 155
 153	 168
 153	 176
 153	 177
 153	 189
 153	 192
 153	 196
 153	 205
 153	 213
 153	 229
 153	 243
 154	 160
 154	 164
 154	 165
 154	 171
 154	 191
 154	 203
 154	 208
 154	 210
 154	 214
 154	 231
 154	 242
 155	 163
 155	 170
 155	 173
 155	 177
 155	 178
 155	 204
 155	 246
 155	 247
 156	 170
 156	 183
 156	 187
 156	 195
 156	 200
 156	 201
 156	 207
 156	 212
 156	 216
 156	 220
 156	 234
 156	 243
 156	 245
 157	 158
 157	 177
 157	 193
 157	 195
 157	 212
 157	 217
 157	 227
 157	 243
 158	 169
 158	 199
 158	 204
 158	 205
 158	 214
 158	 216
 158	 221
 158	 233
 158	 235
 158	 237
 159	 172
 159	 181
 159	 186
 159	 207
 159	 208
 159	 245
 159	 247
 160	 171
 160	 182
 160	 231
 160	 238
 161	 166
 161	 172
 161	 175
 161	 193
 161	 237
 162	 166
 162	 177
 162	 179
 162	 188
 162	 199
 162	 206
 162	 209
 162	 224
 162	 231
 162	 242
 163	 166
 163	 212
 163	 219
 164	 165
 164	 188
 164	 191
 164	 210
 164	 213
 164	 214
 164	 225
 164	 236
 164	 244
 165	 168
 165	 173
 165	 179
 165	 191
 165	 199
 165	 201
 165	 227
 165	 232
 166	 188
 166	 196
 166	 211
 166	 215
 166	 229
 167	 182
 167	 186
 167	 190
 167	 191
 167	 208
 167	 217
 167	 220
 167	 228
 167	 248
 168	 171
 168	 180
 168	 192
 168	 193
 168	 223
 168	 246
 169	 199
 169	 216
 169	 220
 169	 235
 170	 172
 170	 187
 170	 200
 170	 227
 171	 187
 171	 189
 171	 195
 171	 198
 171	 199
 171	 211
 171	 221
 171	 223
 171	 225
 171	 238
 171	 246
 172	 173
 172	 176
 172	 179
 172	 210
 172	 222
 172	 223
 172	 229
 172	 245
 173	 174
 173	 186
 173	 200
 173	 225
 173	 226
 173	 228
 173	 239
 173	 243
 173	 246
 174	 178
 174	 190
 174	 202
 174	 228
 174	 236
 174	 237
 174	 244
 175	 187
 175	 191
 175	 192
 175	 199
 175	 209
 175	 212
 175	 214
 175	 232
 175	 236
 175	 242
 175	 245
 175	 247
 176	 184
 176	 200
 176	 208
 176	 223
 176	 231
 176	 232
 177	 201
 177	 245
 178	 207
 178	 211
 178	 213
 178	 217
 178	 224
 178	 229
 178	 237
 179	 189
 179	 194
 179	 195
 179	 225
 179	 233
 179	 236
 179	 239
 179	 246
 180	 207
 180	 240
 180	 245
 181	 182
 181	 187
 181	 219
 181	 245
 182	 198
 182	 200
 182	 209
 182	 211
 182	 238
 182	 242
 183	 189
 183	 192
 183	 199
 183	 215
 183	 220
 183	 223
 183	 225
 183	 231
 183	 236
 183	 242
 183	 246
 184	 192
 184	 195
 184	 214
 184	 224
 184	 234
 184	 245
 184	 247
 185	 190
 185	 203
 185	 213
 185	 224
 185	 225
 185	 229
 185	 234
 185	 236
 185	 238
 185	 243
 185	 245
 186	 200
 186	 223
 186	 228
 186	 231
 186	 244
 186	 245
 186	 247
 187	 188
 187	 190
 187	 191
 187	 193
 187	 201
 187	 207
 187	 213
 187	 216
 187	 218
 187	 240
 187	 242
 188	 199
 188	 203
 188	 222
 188	 231
 188	 238
 188	 239
 188	 243
 188	 245
 188	 246
 189	 200
 189	 218
 189	 233
 189	 239
 190	 191
 190	 208
 190	 220
 190	 221
 190	 236
 191	 192
 191	 193
 191	 194
 191	 210
 191	 213
 191	 214
 191	 235
 191	 238
 191	 243
 191	 246
 191	 248
 192	 193
 192	 195
 192	 201
 192	 204
 192	 206
 192	 210
 192	 215
 192	 217
 192	 218
 192	 219
 192	 220
 192	 231
 193	 194
 193	 199
 193	 203
 193	 212
 193	 222
 193	 224
 193	 235
 193	 236
 193	 240
 193	 243
 194	 206
 194	 211
 194	 224
 194	 228
 194	 243
 194	 244
 194	 247
 195	 197
 195	 230
 195	 244
 196	 199
 196	 202
 196	 225
 196	 226
 196	 229
 196	 242
 197	 202
 197	 214
 197	 217
 197	 219
 197	 232
 197	 236
 197	 238
 197	 240
 197	 242
 197	 244
 198	 227
 198	 238
 198	 246
 199	 201
 199	 207
 199	 208
 199	 213
 199	 237
 200	 206
 200	 233
 200	 244
 200	 247
 201	 203
 201	 215
 201	 220
 202	 215
 202	 227
 202	 231
 202	 248
 203	 204
 203	 214
 203	 222
 204	 225
 204	 229
 204	 242
 204	 248
 205	 217
 205	 234
 206	 229
 206	 247
 207	 209
 207	 214
 207	 222
 207	 230
 208	 209
 208	 233
 208	 235
 209	 229
 209	 248
 210	 220
 210	 223
 210	 232
 211	 227
 211	 232
 212	 216
 212	 220
 212	 222
 212	 233
 212	 238
 213	 214
 213	 232
 214	 232
 214	 241
 215	 224
 215	 228
 215	 232
 215	 234
 215	 245
 215	 246
 216	 219
 216	 220
 216	 222
 216	 225
 216	 227
 217	 220
 217	 230
 217	 240
 217	 247
 218	 231
 218	 235
 219	 220
 219	 231
 219	 245
 220	 223
 220	 243
 221	 224
 221	 230
 221	 233
 221	 241
 222	 229
 222	 231
 222	 238
 222	 243
 223	 234
 223	 237
 223	 243
 223	 247
 224	 234
 224	 240
 224	 245
 224	 246
 225	 232
 225	 241
 225	 242
 225	 245
 226	 228
 226	 231
 227	 230
 228	 241
 228	 244
 229	 237
 229	 241
 229	 242
 230	 232
 230	 233
 230	 248
 231	 240
 231	 246
 233	 244
 234	 238
 235	 246
 236	 238
 236	 246
 236	 247
 237	 244
 238	 245
 239	 241
 240	 242
 241	 245
 244	 247
;
